Minimize
    obj: C_1 + C_2 + C_3 + C_4 + C_5 + C_6 + C_7 + C_8
Subject To
Bounds
    X_1_1 >= 0
    X_1_2 >= 0
    X_1_3 >= 0
    X_1_4 >= 0
    X_1_5 >= 0
    X_1_6 >= 0
    X_1_7 >= 0
    X_1_8 >= 0
    X_2_1 >= 0
    X_2_2 >= 0
    X_2_3 >= 0
    X_2_4 >= 0
    X_2_5 >= 0
    X_2_6 >= 0
    X_2_7 >= 0
    X_2_8 >= 0
    X_3_1 >= 0
    X_3_2 >= 0
    X_3_3 >= 0
    X_3_4 >= 0
    X_3_5 >= 0
    X_3_6 >= 0
    X_3_7 >= 0
    X_3_8 >= 0
Integer
    X_1_1
    X_1_2
    X_1_3
    X_1_4
    X_1_5
    X_1_6
    X_1_7
    X_1_8
    X_2_1
    X_2_2
    X_2_3
    X_2_4
    X_2_5
    X_2_6
    X_2_7
    X_2_8
    X_3_1
    X_3_2
    X_3_3
    X_3_4
    X_3_5
    X_3_6
    X_3_7
    X_3_8
Binary
    C_1
    C_2
    C_3
    C_4
    C_5
    C_6
    C_7
    C_8
